(declare-fun $envposx$~1 () Int)
(declare-fun $envposy$~1 () Int)
(declare-fun $posx$~1 () Int)
(declare-fun $posy$~1 () Int)
(declare-fun $ok1$~1 () Bool)
(declare-fun $ok2$~1 () Bool)
(declare-fun $ok3$~1 () Bool)
(declare-fun $ok4$~1 () Bool)
(declare-fun $abs~0.val$~1 () Int)
(declare-fun $abs~0.absval$~1 () Int)
(declare-fun $Initially~0.i$~1 () Bool)
(declare-fun $Initially~0.o$~1 () Bool)
(assert (and 
  (= $envposx$~1 $envposx$~1) 
  (= $envposy$~1 $envposy$~1)
))

(assert (and 
  (= $posx$~1 $posx$~1) 
  (= $posy$~1 $posy$~1) 
  (= $ok1$~1 $ok1$~1) 
  (= $ok2$~1 $ok2$~1) 
  (= $ok3$~1 $ok3$~1) 
  (= $ok4$~1 $ok4$~1) 
  (= $abs~0.val$~1 $abs~0.val$~1) 
  (= $abs~0.absval$~1 $abs~0.absval$~1) 
  (= $Initially~0.i$~1 $Initially~0.i$~1) 
  (= $Initially~0.o$~1 $Initially~0.o$~1)
))
